c generated by sgen
p cnf 125 260
-2 -3 -4 0
-1 -3 -4 0
-1 -2 -4 0
-1 -2 -3 0
-6 -7 -8 0
-5 -7 -8 0
-5 -6 -8 0
-5 -6 -7 0
-10 -11 -12 0
-9 -11 -12 0
-9 -10 -12 0
-9 -10 -11 0
-14 -15 -16 0
-13 -15 -16 0
-13 -14 -16 0
-13 -14 -15 0
-18 -19 -20 0
-17 -19 -20 0
-17 -18 -20 0
-17 -18 -19 0
-22 -23 -24 0
-21 -23 -24 0
-21 -22 -24 0
-21 -22 -23 0
-26 -27 -28 0
-25 -27 -28 0
-25 -26 -28 0
-25 -26 -27 0
-30 -31 -32 0
-29 -31 -32 0
-29 -30 -32 0
-29 -30 -31 0
-34 -35 -36 0
-33 -35 -36 0
-33 -34 -36 0
-33 -34 -35 0
-38 -39 -40 0
-37 -39 -40 0
-37 -38 -40 0
-37 -38 -39 0
-42 -43 -44 0
-41 -43 -44 0
-41 -42 -44 0
-41 -42 -43 0
-46 -47 -48 0
-45 -47 -48 0
-45 -46 -48 0
-45 -46 -47 0
-50 -51 -52 0
-49 -51 -52 0
-49 -50 -52 0
-49 -50 -51 0
-54 -55 -56 0
-53 -55 -56 0
-53 -54 -56 0
-53 -54 -55 0
-58 -59 -60 0
-57 -59 -60 0
-57 -58 -60 0
-57 -58 -59 0
-62 -63 -64 0
-61 -63 -64 0
-61 -62 -64 0
-61 -62 -63 0
-66 -67 -68 0
-65 -67 -68 0
-65 -66 -68 0
-65 -66 -67 0
-70 -71 -72 0
-69 -71 -72 0
-69 -70 -72 0
-69 -70 -71 0
-74 -75 -76 0
-73 -75 -76 0
-73 -74 -76 0
-73 -74 -75 0
-78 -79 -80 0
-77 -79 -80 0
-77 -78 -80 0
-77 -78 -79 0
-82 -83 -84 0
-81 -83 -84 0
-81 -82 -84 0
-81 -82 -83 0
-86 -87 -88 0
-85 -87 -88 0
-85 -86 -88 0
-85 -86 -87 0
-90 -91 -92 0
-89 -91 -92 0
-89 -90 -92 0
-89 -90 -91 0
-94 -95 -96 0
-93 -95 -96 0
-93 -94 -96 0
-93 -94 -95 0
-98 -99 -100 0
-97 -99 -100 0
-97 -98 -100 0
-97 -98 -99 0
-102 -103 -104 0
-101 -103 -104 0
-101 -102 -104 0
-101 -102 -103 0
-106 -107 -108 0
-105 -107 -108 0
-105 -106 -108 0
-105 -106 -107 0
-110 -111 -112 0
-109 -111 -112 0
-109 -110 -112 0
-109 -110 -111 0
-114 -115 -116 0
-113 -115 -116 0
-113 -114 -116 0
-113 -114 -115 0
-118 -119 -120 0
-117 -119 -120 0
-117 -118 -120 0
-117 -118 -119 0
-121 -122 -123 0
-121 -122 -124 0
-121 -122 -125 0
-121 -123 -124 0
-121 -123 -125 0
-121 -124 -125 0
-122 -123 -124 0
-122 -123 -125 0
-122 -124 -125 0
-123 -124 -125 0
7 122 117 0
56 122 117 0
56 7 117 0
56 7 122 0
16 21 64 0
120 21 64 0
120 16 64 0
120 16 21 0
13 67 3 0
116 67 3 0
116 13 3 0
116 13 67 0
63 60 97 0
107 60 97 0
107 63 97 0
107 63 60 0
48 36 12 0
91 36 12 0
91 48 12 0
91 48 36 0
5 32 93 0
10 32 93 0
10 5 93 0
10 5 32 0
90 94 119 0
87 94 119 0
87 90 119 0
87 90 94 0
27 103 78 0
106 103 78 0
106 27 78 0
106 27 103 0
123 42 22 0
34 42 22 0
34 123 22 0
34 123 42 0
53 84 108 0
15 84 108 0
15 53 108 0
15 53 84 0
38 113 105 0
29 113 105 0
29 38 105 0
29 38 113 0
19 74 114 0
83 74 114 0
83 19 114 0
83 19 74 0
104 58 110 0
31 58 110 0
31 104 110 0
31 104 58 0
102 17 99 0
39 17 99 0
39 102 99 0
39 102 17 0
47 86 20 0
70 86 20 0
70 47 20 0
70 47 86 0
72 52 61 0
115 52 61 0
115 72 61 0
115 72 52 0
30 76 14 0
25 76 14 0
25 30 14 0
25 30 76 0
46 54 80 0
43 54 80 0
43 46 80 0
43 46 54 0
75 89 101 0
49 89 101 0
49 75 101 0
49 75 89 0
1 59 33 0
118 59 33 0
118 1 33 0
118 1 59 0
40 55 11 0
51 55 11 0
51 40 11 0
51 40 55 0
85 37 26 0
41 37 26 0
41 85 26 0
41 85 37 0
24 8 71 0
28 8 71 0
28 24 71 0
28 24 8 0
82 69 44 0
68 69 44 0
68 82 44 0
68 82 69 0
125 88 109 0
77 88 109 0
77 125 109 0
77 125 88 0
50 100 111 0
96 100 111 0
96 50 111 0
96 50 100 0
45 112 65 0
6 112 65 0
6 45 65 0
6 45 112 0
23 18 4 0
92 18 4 0
92 23 4 0
92 23 18 0
73 121 95 0
2 121 95 0
2 73 95 0
2 73 121 0
66 98 124 0
57 98 124 0
57 66 124 0
57 66 98 0
9 62 81 0
9 62 79 0
9 62 35 0
9 81 79 0
9 81 35 0
9 79 35 0
62 81 79 0
62 81 35 0
62 79 35 0
81 79 35 0
